RT is False
Default write of storage_offers_DA.csv just to have a file (but constraint should be inactive)
Reading model...
...model read.
creating competitive generators file...
...competitive generators recorded.
Loading data...
.. day-ahead data with real-time VRE data read.
Compiling instance...
...instance created.
Creating Offer Mitigation (model will solve as dispatch if TRUE)...
NOTE: storage offers will not be mitigated
...storage offer mitigation file created
Converting model to MPEC...
...converted
NOTE: initial MIP solve with only storage competitive to get feasible solution
Solving...

Welcome to IBM(R) ILOG(R) CPLEX(R) Interactive Optimizer 12.9.0.0
  with Simplex, Mixed Integer & Barrier Optimizers
5725-A06 5725-A29 5724-Y48 5724-Y49 5724-Y54 5724-Y55 5655-Y21
Copyright IBM Corp. 1988, 2019.  All Rights Reserved.

Type 'help' for a list of available commands.
Type 'help' followed by a command name for more
information on commands.

CPLEX> Logfile 'cplex.log' closed.
Logfile 'C:\Users\Luke\Desktop\test919\logs\tmpp8f4f9ut.cplex.log' open.
CPLEX> New value for parallel optimization mode: -1
CPLEX> New value for mixed integer optimality gap tolerance: 0.01
CPLEX> New value for integrality tolerance: 1e-09
CPLEX> New value for feasibility tolerance: 0.01
CPLEX> New value for deterministic time limit in ticks: 75000
CPLEX> Problem 'C:\Users\Luke\Desktop\test919\logs\tmpomq977st.pyomo.lp' read.
Read time = 0.20 sec. (14.73 ticks)
CPLEX> Problem name         : C:\Users\Luke\Desktop\test919\logs\tmpomq977st.pyomo.lp
Objective sense      : Maximize
Variables            :   53805  [Nneg: 1,  Box: 22000,  Free: 4464,
                                 Binary: 27340]
Objective nonzeros   :    9078
Linear constraints   :  123205  [Less: 41346,  Greater: 59096,  Equal: 22763]
  Nonzeros           :  291705
  RHS nonzeros       :   67491

Variables            : Min LB: -5000.000        Max UB: 1000000.       
Objective nonzeros   : Min   : 0.05000000       Max   : 2500.000       
Linear constraints   :
  Nonzeros           : Min   : 0.05000000       Max   : 1000000.       
  RHS nonzeros       : Min   : 0.05000000       Max   : 1000000.       
CPLEX> CPXPARAM_Parallel                                -1
CPXPARAM_Simplex_Tolerances_Feasibility          0.01
CPXPARAM_DetTimeLimit                            75000
CPXPARAM_MIP_Tolerances_MIPGap                   0.01
CPXPARAM_MIP_Tolerances_Integrality              1.0000000000000001e-09
Tried aggregator 3 times.
MIP Presolve eliminated 88736 rows and 19084 columns.
MIP Presolve added 3354 rows and 0 columns.
MIP Presolve modified 24713 coefficients.
Aggregator did 12933 substitutions.
Reduced MIP has 24890 rows, 21232 columns, and 70962 nonzeros.
Reduced MIP has 8396 binaries, 0 generals, 0 SOSs, and 0 indicators.
Presolve time = 0.23 sec. (175.72 ticks)
Probing fixed 422 vars, tightened 2932 bounds.
Probing time = 1.44 sec. (915.71 ticks)
Tried aggregator 2 times.
MIP Presolve eliminated 963 rows and 848 columns.
MIP Presolve modified 2234 coefficients.
Aggregator did 43 substitutions.
Reduced MIP has 23884 rows, 20341 columns, and 68049 nonzeros.
Reduced MIP has 7973 binaries, 0 generals, 0 SOSs, and 0 indicators.
Presolve time = 0.11 sec. (68.71 ticks)
Probing time = 0.05 sec. (15.85 ticks)
Clique table members: 6270.
MIP emphasis: balance optimality and feasibility.
MIP search method: dynamic search.
Parallel mode: opportunistic, using up to 24 threads.
Root relaxation solution time = 0.45 sec. (517.21 ticks)

        Nodes                                         Cuts/
   Node  Left     Objective  IInf  Best Integer    Best Bound    ItCnt     Gap

      0     0      -34.2725   941                    -34.2725     4268         
      0    11    infeasible                          -34.3238     4298         
Elapsed time = 7.69 sec. (4702.42 ticks, tree = 0.02 MB, solutions = 0)
*   165    44      integral     0     -144.7273      -83.5226     4380   42.29%
    191    51      -94.7866     4     -144.7273      -83.5226     4398   42.29%
*   273    36      integral     0     -133.4633      -83.5226    11291   37.42%
    351    45      -83.8251     1     -133.4633      -83.5226    11356   37.42%
    503    62        cutoff           -133.4633      -83.5226    25447   37.42%
    686    63      -83.5226     2     -133.4633      -83.5226    25445   37.42%
    813    82      -94.7949   195     -133.4633      -83.5226    33775   37.42%
    938   111      -83.5226     3     -133.4633      -83.5226    41485   37.42%
   1106   115      -83.5309   155     -133.4633      -83.5226    48745   37.42%
   1286   158      -94.7949   146     -133.4633      -83.5226    63403   37.42%
   1472   162      -94.7949   129     -133.4633      -83.5226    63420   37.42%
   2329   302        cutoff           -133.4633      -83.5226    63974   37.42%
Elapsed time = 13.69 sec. (7817.77 ticks, tree = 2.51 MB, solutions = 3)
*  2474   524      integral     0      -94.7949      -83.5226    64736   11.89%
   2924   535      -83.5226     1      -94.7949      -83.5226    64748   11.89%
   3317   423      -83.5226     1      -94.7949      -83.5226    65096   11.89%
   3711   367        cutoff            -94.7949      -83.5226    77074   11.89%
   4166   437        cutoff            -94.7949      -83.5309    67670   11.88%
   4361   156      -85.7019     1      -94.7949      -83.5309    90777   11.88%
   4413   132        cutoff            -94.7949      -83.5309    92393   11.88%
   4435   129        cutoff            -94.7949      -84.6329    92443   10.72%

Cover cuts applied:  2
Implied bound cuts applied:  16
Flow cuts applied:  434
Gomory fractional cuts applied:  7

Root node processing (before b&c):
  Real time             =    7.36 sec. (4695.58 ticks)
Parallel b&c, 24 threads:
  Real time             =   13.56 sec. (10375.62 ticks)
  Sync time (average)   =    1.61 sec.
  Wait time (average)   =    0.00 sec.
                          ------------
Total (root+branch&cut) =   20.92 sec. (15071.20 ticks)

Solution pool: 4 solutions saved.

MIP - Integer optimal, tolerance (0.01/1e-06):  Objective = -9.4794927653e+01
Current MIP best bound = -9.4786569793e+01 (gap = 0.00835786, 0.01%)
Solution time =   20.92 sec.  Iterations = 92454  Nodes = 4441 (128)
Deterministic time = 15071.35 ticks  (720.36 ticks/sec)

CPLEX> Incumbent solution written to file 'C:\Users\Luke\Desktop\test919\logs\tmpttc965h4.cplex.sol'.
CPLEX> NOTE: no warmstart specified for MIP iteration, default behavior is true
NOTE: resolving with all competitive generators using storage-only solution to warmstart
Solving...

Welcome to IBM(R) ILOG(R) CPLEX(R) Interactive Optimizer 12.9.0.0
  with Simplex, Mixed Integer & Barrier Optimizers
5725-A06 5725-A29 5724-Y48 5724-Y49 5724-Y54 5724-Y55 5655-Y21
Copyright IBM Corp. 1988, 2019.  All Rights Reserved.

Type 'help' for a list of available commands.
Type 'help' followed by a command name for more
information on commands.

CPLEX> Logfile 'cplex.log' closed.
Logfile 'C:\Users\Luke\Desktop\test919\logs\tmpe6jdkrvs.cplex.log' open.
CPLEX> New value for parallel optimization mode: -1
CPLEX> New value for mixed integer optimality gap tolerance: 0.01
CPLEX> New value for integrality tolerance: 1e-09
CPLEX> New value for feasibility tolerance: 0.01
CPLEX> New value for deterministic time limit in ticks: 75000
CPLEX> Problem 'C:\Users\Luke\Desktop\test919\logs\tmphz5dkzfm.pyomo.lp' read.
Read time = 0.20 sec. (14.75 ticks)
CPLEX> MIP start file 'C:\Users\Luke\Desktop\test919\logs\tmp5v_8z6ib.cplex.mst' read.
CPLEX> Problem name         : C:\Users\Luke\Desktop\test919\logs\tmphz5dkzfm.pyomo.lp
Objective sense      : Maximize
Variables            :   54525  [Nneg: 1,  Box: 22720,  Free: 4464,
                                 Binary: 27340]
Objective nonzeros   :    9798
Linear constraints   :  123205  [Less: 41346,  Greater: 59096,  Equal: 22763]
  Nonzeros           :  291705
  RHS nonzeros       :   67491

Variables            : Min LB: -5000.000        Max UB: 1000000.       
Objective nonzeros   : Min   : 0.05000000       Max   : 2500.000       
Linear constraints   :
  Nonzeros           : Min   : 0.05000000       Max   : 1000000.       
  RHS nonzeros       : Min   : 0.05000000       Max   : 1000000.       
CPLEX> CPXPARAM_Parallel                                -1
CPXPARAM_Simplex_Tolerances_Feasibility          0.01
CPXPARAM_DetTimeLimit                            75000
CPXPARAM_MIP_Tolerances_MIPGap                   0.01
CPXPARAM_MIP_Tolerances_Integrality              1.0000000000000001e-09
Warning:  No solution found from 1 MIP starts.
Retaining values of one MIP start for possible repair.
Tried aggregator 3 times.
MIP Presolve eliminated 88736 rows and 19804 columns.
MIP Presolve added 3354 rows and 0 columns.
MIP Presolve modified 24713 coefficients.
Aggregator did 12933 substitutions.
Reduced MIP has 24890 rows, 21232 columns, and 70962 nonzeros.
Reduced MIP has 8396 binaries, 0 generals, 0 SOSs, and 0 indicators.
Presolve time = 0.25 sec. (176.08 ticks)
Probing fixed 422 vars, tightened 2932 bounds.
Probing time = 1.44 sec. (915.71 ticks)
Tried aggregator 2 times.
MIP Presolve eliminated 963 rows and 848 columns.
MIP Presolve modified 2234 coefficients.
Aggregator did 43 substitutions.
Reduced MIP has 23884 rows, 20341 columns, and 68049 nonzeros.
Reduced MIP has 7973 binaries, 0 generals, 0 SOSs, and 0 indicators.
Presolve time = 0.09 sec. (68.71 ticks)
Probing time = 0.03 sec. (15.85 ticks)
Clique table members: 6270.
MIP emphasis: balance optimality and feasibility.
MIP search method: dynamic search.
Parallel mode: opportunistic, using up to 24 threads.
Root relaxation solution time = 0.47 sec. (517.21 ticks)

        Nodes                                         Cuts/
   Node  Left     Objective  IInf  Best Integer    Best Bound    ItCnt     Gap

      0     0      -34.2725   941                    -34.2725     4268         
Repair heuristic found nothing.
      0    13    infeasible                          -83.5226     4304         
Elapsed time = 8.02 sec. (4805.32 ticks, tree = 0.02 MB, solutions = 0)
*   160+   59                         -355.6873      -83.5226            76.52%
*   175    55      integral     0     -144.7273      -83.5226     4401   42.29%
*   255    44      integral     0     -133.4633      -83.5226     4495   37.42%
    347    46      -83.5226     3     -133.4633      -83.5226     4598   37.42%
    512    56        cutoff           -133.4633      -83.5226    11736   37.42%
    651    92        cutoff           -133.4633      -83.5226    11856   37.42%
    790   104        cutoff           -133.4633      -83.5226    11946   37.42%
    906   115      -94.7866     3     -133.4633      -83.5226    12020   37.42%
   1020   121        cutoff           -133.4633      -83.5226    12079   37.42%
   1117   131      -83.5226     3     -133.4633      -83.5226    12143   37.42%
   1216   135      -83.5226     1     -133.4633      -83.5226    12193   37.42%
   1559   168      -94.7866     1     -133.4633      -83.5226    12540   37.42%
Elapsed time = 13.05 sec. (7859.82 ticks, tree = 0.52 MB, solutions = 4)
   1875   185        cutoff           -133.4633      -83.5226    12663   37.42%
   2157   203      -94.7897     1     -133.4633      -83.5226    12880   37.42%
   2383   237        cutoff           -133.4633      -83.5226    13296   37.42%
   2648   296      -94.7866     1     -133.4633      -83.5226    13713   37.42%
   2866   320        cutoff           -133.4633      -83.5226    13904   37.42%
   3076   347        cutoff           -133.4633      -83.5226    14202   37.42%
   3287   379      -83.5226     4     -133.4633      -83.5226    14474   37.42%
   3480   390        cutoff           -133.4633      -83.5226    14585   37.42%
   3706   460      -83.5226     2     -133.4633      -83.5226    14935   37.42%
   3924   560      -89.4589     1     -133.4633      -83.5226    15651   37.42%
Elapsed time = 23.81 sec. (17445.13 ticks, tree = 17.67 MB, solutions = 4)
   4128   527      -94.7866     1     -133.4633      -83.5226    15422   37.42%
   4288   623        cutoff           -133.4633      -83.5226    16295   37.42%
   4478   722      -94.7866     3     -133.4633      -83.5226    17053   37.42%
   4673   734      -83.5226     1     -133.4633      -83.5226    17153   37.42%
   4871   773      -83.5226     1     -133.4633      -83.5226    17469   37.42%
   5040   828      -84.1244     1     -133.4633      -83.5226    17880   37.42%
   5197   880      -83.5226     1     -133.4633      -83.5226    18237   37.42%
   5348   892        cutoff           -133.4633      -83.5226    18324   37.42%
   5503   907        cutoff           -133.4633      -83.5226    18544   37.42%
   5622   957      -83.5226     1     -133.4633      -83.5226    18843   37.42%
Elapsed time = 34.36 sec. (27044.11 ticks, tree = 26.39 MB, solutions = 4)
   5757   987      -83.5226     1     -133.4633      -83.5226    19102   37.42%
   5869   973        cutoff           -133.4633      -83.5226    19011   37.42%
   5995   994      -94.7866     1     -133.4633      -83.5226    19187   37.42%
   6115  1012      -83.5226     1     -133.4633      -83.5226    19343   37.42%
   6224  1003        cutoff           -133.4633      -83.5226    19273   37.42%
   6333  1021      -83.5226     1     -133.4633      -83.5226    19448   37.42%
   6443  1021      -83.5226     1     -133.4633      -83.5226    19426   37.42%
   6559  1020        cutoff           -133.4633      -83.5226    19498   37.42%
   6664  1019        cutoff           -133.4633      -83.5226    19525   37.42%
   6762  1028        cutoff           -133.4633      -83.5226    19597   37.42%
Elapsed time = 43.95 sec. (36680.32 ticks, tree = 23.84 MB, solutions = 4)
   6857  1041        cutoff           -133.4633      -83.5226    19721   37.42%
   6951  1046        cutoff           -133.4633      -83.5226    19758   37.42%
   7049  1048        cutoff           -133.4633      -83.5226    19858   37.42%
   7143  1048        cutoff           -133.4633      -83.5226    19856   37.42%
   7237  1063        cutoff           -133.4633      -83.5226    20045   37.42%
   7334  1063        cutoff           -133.4633      -83.5226    20007   37.42%
   7422  1061      -83.5226     1     -133.4633      -83.5226    19975   37.42%
   7516  1071        cutoff           -133.4633      -83.5226    20107   37.42%
   7606  1073        cutoff           -133.4633      -83.5226    20115   37.42%
   7694  1092      -84.1244     1     -133.4633      -83.5226    20299   37.42%
Elapsed time = 53.69 sec. (46330.54 ticks, tree = 27.58 MB, solutions = 4)
   7773  1121        cutoff           -133.4633      -83.5226    20562   37.42%
   7854  1092      -83.5226     1     -133.4633      -83.5226    20298   37.42%
   7926  1099        cutoff           -133.4633      -83.5226    20369   37.42%
   8013  1104      -83.5226     1     -133.4633      -83.5226    20409   37.42%
   8085  1104      -84.1244     1     -133.4633      -83.5226    20402   37.42%
   8168  1127      -83.5226     3     -133.4633      -83.5226    20591   37.42%
   8252  1128      -83.5226     1     -133.4633      -83.5226    20596   37.42%
   8334  1140      -83.5226     3     -133.4633      -83.5226    20698   37.42%
   8408  1159        cutoff           -133.4633      -83.5226    20841   37.42%
   8480  1147      -83.5226     2     -133.4633      -83.5226    20738   37.42%
Elapsed time = 63.23 sec. (55968.31 ticks, tree = 25.33 MB, solutions = 4)
   8558  1178      -83.5226     2     -133.4633      -83.5226    20928   37.42%
   8626  1164      -95.8969     3     -133.4633      -83.5226    20876   37.42%
   8696  1165      -95.8969     1     -133.4633      -83.5226    20877   37.42%
   8773  1193        cutoff           -133.4633      -83.5226    20988   37.42%
   8844  1209        cutoff           -133.4633      -83.5226    21095   37.42%
   8910  1219      -83.5226     1     -133.4633      -83.5226    21175   37.42%
   8990  1240      -94.7866     1     -133.4633      -83.5226    21357   37.42%
   9066  1244        cutoff           -133.4633      -83.5226    21421   37.42%
   9133  1238        cutoff           -133.4633      -83.5226    21320   37.42%
   9196  1238      -83.5226     1     -133.4633      -83.5226    21313   37.42%
Elapsed time = 72.83 sec. (65595.10 ticks, tree = 25.67 MB, solutions = 4)
   9265  1263      -94.7866     1     -133.4633      -83.5226    21528   37.42%
   9329  1252      -83.5226     1     -133.4633      -83.5226    21485   37.42%
   9399  1251        cutoff           -133.4633      -83.5226    21465   37.42%
   9454  1257      -95.8969     1     -133.4633      -83.5226    21504   37.42%
   9510  1291        cutoff           -133.4633      -83.5226    21681   37.42%
   9556  1283        cutoff           -133.4633      -83.5226    21606   37.42%
   9602  1289      -83.5226     1     -133.4633      -83.5226    21660   37.42%
   9623  1293      -83.5226     2     -133.4633      -83.5226    21693   37.42%

Root node processing (before b&c):
  Real time             =    7.67 sec. (4795.24 ticks)
Parallel b&c, 24 threads:
  Real time             =   70.30 sec. (70213.21 ticks)
  Sync time (average)   =    0.16 sec.
  Wait time (average)   =    0.00 sec.
                          ------------
Total (root+branch&cut) =   77.97 sec. (75008.45 ticks)

Solution pool: 4 solutions saved.

MIP - Deterministic time limit exceeded, integer feasible:  Objective = -1.3346332970e+02
Current MIP best bound = -8.3522589464e+01 (gap = 49.9407, 37.42%)
Solution time =   77.98 sec.  Iterations = 21958  Nodes = 9630 (1336)
Deterministic time = 75008.60 ticks  (961.85 ticks/sec)

CPLEX> Incumbent solution written to file 'C:\Users\Luke\Desktop\test919\logs\tmpx_zzhfea.cplex.sol'.
CPLEX> Exporting results... 
